NAME : rnd13_50.tsp.tsp.opt.tour
TYPE : TOUR
DIMENSION : 50
TOUR_SECTION
1
20
16
34
23
29
15
5
12
44
43
39
27
6
31
41
33
25
48
32
10
4
42
46
2
9
19
50
30
35
26
21
40
47
18
11
7
24
45
22
49
3
8
17
37
36
28
14
38
13
-1